c description: Tseitin formula on , with odd charge
c generator: CNFgen (0.9.0)
c copyright: (C) 2012-2020 Massimo Lauria <massimo.lauria@uniroma1.it>
c url: https://massimolauria.net/cnfgen
c
p cnf 30 424
1 2 3 4 5 6 0
1 2 3 4 -5 -6 0
1 2 3 -4 5 -6 0
1 2 3 -4 -5 6 0
1 2 -3 4 5 -6 0
1 2 -3 4 -5 6 0
1 2 -3 -4 5 6 0
1 2 -3 -4 -5 -6 0
1 -2 3 4 5 -6 0
1 -2 3 4 -5 6 0
1 -2 3 -4 5 6 0
1 -2 3 -4 -5 -6 0
1 -2 -3 4 5 6 0
1 -2 -3 4 -5 -6 0
1 -2 -3 -4 5 -6 0
1 -2 -3 -4 -5 6 0
-1 2 3 4 5 -6 0
-1 2 3 4 -5 6 0
-1 2 3 -4 5 6 0
-1 2 3 -4 -5 -6 0
-1 2 -3 4 5 6 0
-1 2 -3 4 -5 -6 0
-1 2 -3 -4 5 -6 0
-1 2 -3 -4 -5 6 0
-1 -2 3 4 5 6 0
-1 -2 3 4 -5 -6 0
-1 -2 3 -4 5 -6 0
-1 -2 3 -4 -5 6 0
-1 -2 -3 4 5 -6 0
-1 -2 -3 4 -5 6 0
-1 -2 -3 -4 5 6 0
-1 -2 -3 -4 -5 -6 0
1 7 8 9 10 -11 0
1 7 8 9 -10 11 0
1 7 8 -9 10 11 0
1 7 8 -9 -10 -11 0
1 7 -8 9 10 11 0
1 7 -8 9 -10 -11 0
1 7 -8 -9 10 -11 0
1 7 -8 -9 -10 11 0
1 -7 8 9 10 11 0
1 -7 8 9 -10 -11 0
1 -7 8 -9 10 -11 0
1 -7 8 -9 -10 11 0
1 -7 -8 9 10 -11 0
1 -7 -8 9 -10 11 0
1 -7 -8 -9 10 11 0
1 -7 -8 -9 -10 -11 0
-1 7 8 9 10 11 0
-1 7 8 9 -10 -11 0
-1 7 8 -9 10 -11 0
-1 7 8 -9 -10 11 0
-1 7 -8 9 10 -11 0
-1 7 -8 9 -10 11 0
-1 7 -8 -9 10 11 0
-1 7 -8 -9 -10 -11 0
-1 -7 8 9 10 -11 0
-1 -7 8 9 -10 11 0
-1 -7 8 -9 10 11 0
-1 -7 8 -9 -10 -11 0
-1 -7 -8 9 10 11 0
-1 -7 -8 9 -10 -11 0
-1 -7 -8 -9 10 -11 0
-1 -7 -8 -9 -10 11 0
12 13 14 15 16 -17 0
12 13 14 15 -16 17 0
12 13 14 -15 16 17 0
12 13 14 -15 -16 -17 0
12 13 -14 15 16 17 0
12 13 -14 15 -16 -17 0
12 13 -14 -15 16 -17 0
12 13 -14 -15 -16 17 0
12 -13 14 15 16 17 0
12 -13 14 15 -16 -17 0
12 -13 14 -15 16 -17 0
12 -13 14 -15 -16 17 0
12 -13 -14 15 16 -17 0
12 -13 -14 15 -16 17 0
12 -13 -14 -15 16 17 0
12 -13 -14 -15 -16 -17 0
-12 13 14 15 16 17 0
-12 13 14 15 -16 -17 0
-12 13 14 -15 16 -17 0
-12 13 14 -15 -16 17 0
-12 13 -14 15 16 -17 0
-12 13 -14 15 -16 17 0
-12 13 -14 -15 16 17 0
-12 13 -14 -15 -16 -17 0
-12 -13 14 15 16 -17 0
-12 -13 14 15 -16 17 0
-12 -13 14 -15 16 17 0
-12 -13 14 -15 -16 -17 0
-12 -13 -14 15 16 17 0
-12 -13 -14 15 -16 -17 0
-12 -13 -14 -15 16 -17 0
-12 -13 -14 -15 -16 17 0
2 12 18 19 20 -21 0
2 12 18 19 -20 21 0
2 12 18 -19 20 21 0
2 12 18 -19 -20 -21 0
2 12 -18 19 20 21 0
2 12 -18 19 -20 -21 0
2 12 -18 -19 20 -21 0
2 12 -18 -19 -20 21 0
2 -12 18 19 20 21 0
2 -12 18 19 -20 -21 0
2 -12 18 -19 20 -21 0
2 -12 18 -19 -20 21 0
2 -12 -18 19 20 -21 0
2 -12 -18 19 -20 21 0
2 -12 -18 -19 20 21 0
2 -12 -18 -19 -20 -21 0
-2 12 18 19 20 21 0
-2 12 18 19 -20 -21 0
-2 12 18 -19 20 -21 0
-2 12 18 -19 -20 21 0
-2 12 -18 19 20 -21 0
-2 12 -18 19 -20 21 0
-2 12 -18 -19 20 21 0
-2 12 -18 -19 -20 -21 0
-2 -12 18 19 20 -21 0
-2 -12 18 19 -20 21 0
-2 -12 18 -19 20 21 0
-2 -12 18 -19 -20 -21 0
-2 -12 -18 19 20 21 0
-2 -12 -18 19 -20 -21 0
-2 -12 -18 -19 20 -21 0
-2 -12 -18 -19 -20 21 0
13 22 23 24 -25 0
13 22 23 -24 25 0
13 22 -23 24 25 0
13 22 -23 -24 -25 0
13 -22 23 24 25 0
13 -22 23 -24 -25 0
13 -22 -23 24 -25 0
13 -22 -23 -24 25 0
-13 22 23 24 25 0
-13 22 23 -24 -25 0
-13 22 -23 24 -25 0
-13 22 -23 -24 25 0
-13 -22 23 24 -25 0
-13 -22 23 -24 25 0
-13 -22 -23 24 25 0
-13 -22 -23 -24 -25 0
7 22 26 27 -28 0
7 22 26 -27 28 0
7 22 -26 27 28 0
7 22 -26 -27 -28 0
7 -22 26 27 28 0
7 -22 26 -27 -28 0
7 -22 -26 27 -28 0
7 -22 -26 -27 28 0
-7 22 26 27 28 0
-7 22 26 -27 -28 0
-7 22 -26 27 -28 0
-7 22 -26 -27 28 0
-7 -22 26 27 -28 0
-7 -22 26 -27 28 0
-7 -22 -26 27 28 0
-7 -22 -26 -27 -28 0
3 8 14 18 23 26 -29 0
3 8 14 18 23 -26 29 0
3 8 14 18 -23 26 29 0
3 8 14 18 -23 -26 -29 0
3 8 14 -18 23 26 29 0
3 8 14 -18 23 -26 -29 0
3 8 14 -18 -23 26 -29 0
3 8 14 -18 -23 -26 29 0
3 8 -14 18 23 26 29 0
3 8 -14 18 23 -26 -29 0
3 8 -14 18 -23 26 -29 0
3 8 -14 18 -23 -26 29 0
3 8 -14 -18 23 26 -29 0
3 8 -14 -18 23 -26 29 0
3 8 -14 -18 -23 26 29 0
3 8 -14 -18 -23 -26 -29 0
3 -8 14 18 23 26 29 0
3 -8 14 18 23 -26 -29 0
3 -8 14 18 -23 26 -29 0
3 -8 14 18 -23 -26 29 0
3 -8 14 -18 23 26 -29 0
3 -8 14 -18 23 -26 29 0
3 -8 14 -18 -23 26 29 0
3 -8 14 -18 -23 -26 -29 0
3 -8 -14 18 23 26 -29 0
3 -8 -14 18 23 -26 29 0
3 -8 -14 18 -23 26 29 0
3 -8 -14 18 -23 -26 -29 0
3 -8 -14 -18 23 26 29 0
3 -8 -14 -18 23 -26 -29 0
3 -8 -14 -18 -23 26 -29 0
3 -8 -14 -18 -23 -26 29 0
-3 8 14 18 23 26 29 0
-3 8 14 18 23 -26 -29 0
-3 8 14 18 -23 26 -29 0
-3 8 14 18 -23 -26 29 0
-3 8 14 -18 23 26 -29 0
-3 8 14 -18 23 -26 29 0
-3 8 14 -18 -23 26 29 0
-3 8 14 -18 -23 -26 -29 0
-3 8 -14 18 23 26 -29 0
-3 8 -14 18 23 -26 29 0
-3 8 -14 18 -23 26 29 0
-3 8 -14 18 -23 -26 -29 0
-3 8 -14 -18 23 26 29 0
-3 8 -14 -18 23 -26 -29 0
-3 8 -14 -18 -23 26 -29 0
-3 8 -14 -18 -23 -26 29 0
-3 -8 14 18 23 26 -29 0
-3 -8 14 18 23 -26 29 0
-3 -8 14 18 -23 26 29 0
-3 -8 14 18 -23 -26 -29 0
-3 -8 14 -18 23 26 29 0
-3 -8 14 -18 23 -26 -29 0
-3 -8 14 -18 -23 26 -29 0
-3 -8 14 -18 -23 -26 29 0
-3 -8 -14 18 23 26 29 0
-3 -8 -14 18 23 -26 -29 0
-3 -8 -14 18 -23 26 -29 0
-3 -8 -14 18 -23 -26 29 0
-3 -8 -14 -18 23 26 -29 0
-3 -8 -14 -18 23 -26 29 0
-3 -8 -14 -18 -23 26 29 0
-3 -8 -14 -18 -23 -26 -29 0
4 9 15 19 24 27 29 -30 0
4 9 15 19 24 27 -29 30 0
4 9 15 19 24 -27 29 30 0
4 9 15 19 24 -27 -29 -30 0
4 9 15 19 -24 27 29 30 0
4 9 15 19 -24 27 -29 -30 0
4 9 15 19 -24 -27 29 -30 0
4 9 15 19 -24 -27 -29 30 0
4 9 15 -19 24 27 29 30 0
4 9 15 -19 24 27 -29 -30 0
4 9 15 -19 24 -27 29 -30 0
4 9 15 -19 24 -27 -29 30 0
4 9 15 -19 -24 27 29 -30 0
4 9 15 -19 -24 27 -29 30 0
4 9 15 -19 -24 -27 29 30 0
4 9 15 -19 -24 -27 -29 -30 0
4 9 -15 19 24 27 29 30 0
4 9 -15 19 24 27 -29 -30 0
4 9 -15 19 24 -27 29 -30 0
4 9 -15 19 24 -27 -29 30 0
4 9 -15 19 -24 27 29 -30 0
4 9 -15 19 -24 27 -29 30 0
4 9 -15 19 -24 -27 29 30 0
4 9 -15 19 -24 -27 -29 -30 0
4 9 -15 -19 24 27 29 -30 0
4 9 -15 -19 24 27 -29 30 0
4 9 -15 -19 24 -27 29 30 0
4 9 -15 -19 24 -27 -29 -30 0
4 9 -15 -19 -24 27 29 30 0
4 9 -15 -19 -24 27 -29 -30 0
4 9 -15 -19 -24 -27 29 -30 0
4 9 -15 -19 -24 -27 -29 30 0
4 -9 15 19 24 27 29 30 0
4 -9 15 19 24 27 -29 -30 0
4 -9 15 19 24 -27 29 -30 0
4 -9 15 19 24 -27 -29 30 0
4 -9 15 19 -24 27 29 -30 0
4 -9 15 19 -24 27 -29 30 0
4 -9 15 19 -24 -27 29 30 0
4 -9 15 19 -24 -27 -29 -30 0
4 -9 15 -19 24 27 29 -30 0
4 -9 15 -19 24 27 -29 30 0
4 -9 15 -19 24 -27 29 30 0
4 -9 15 -19 24 -27 -29 -30 0
4 -9 15 -19 -24 27 29 30 0
4 -9 15 -19 -24 27 -29 -30 0
4 -9 15 -19 -24 -27 29 -30 0
4 -9 15 -19 -24 -27 -29 30 0
4 -9 -15 19 24 27 29 -30 0
4 -9 -15 19 24 27 -29 30 0
4 -9 -15 19 24 -27 29 30 0
4 -9 -15 19 24 -27 -29 -30 0
4 -9 -15 19 -24 27 29 30 0
4 -9 -15 19 -24 27 -29 -30 0
4 -9 -15 19 -24 -27 29 -30 0
4 -9 -15 19 -24 -27 -29 30 0
4 -9 -15 -19 24 27 29 30 0
4 -9 -15 -19 24 27 -29 -30 0
4 -9 -15 -19 24 -27 29 -30 0
4 -9 -15 -19 24 -27 -29 30 0
4 -9 -15 -19 -24 27 29 -30 0
4 -9 -15 -19 -24 27 -29 30 0
4 -9 -15 -19 -24 -27 29 30 0
4 -9 -15 -19 -24 -27 -29 -30 0
-4 9 15 19 24 27 29 30 0
-4 9 15 19 24 27 -29 -30 0
-4 9 15 19 24 -27 29 -30 0
-4 9 15 19 24 -27 -29 30 0
-4 9 15 19 -24 27 29 -30 0
-4 9 15 19 -24 27 -29 30 0
-4 9 15 19 -24 -27 29 30 0
-4 9 15 19 -24 -27 -29 -30 0
-4 9 15 -19 24 27 29 -30 0
-4 9 15 -19 24 27 -29 30 0
-4 9 15 -19 24 -27 29 30 0
-4 9 15 -19 24 -27 -29 -30 0
-4 9 15 -19 -24 27 29 30 0
-4 9 15 -19 -24 27 -29 -30 0
-4 9 15 -19 -24 -27 29 -30 0
-4 9 15 -19 -24 -27 -29 30 0
-4 9 -15 19 24 27 29 -30 0
-4 9 -15 19 24 27 -29 30 0
-4 9 -15 19 24 -27 29 30 0
-4 9 -15 19 24 -27 -29 -30 0
-4 9 -15 19 -24 27 29 30 0
-4 9 -15 19 -24 27 -29 -30 0
-4 9 -15 19 -24 -27 29 -30 0
-4 9 -15 19 -24 -27 -29 30 0
-4 9 -15 -19 24 27 29 30 0
-4 9 -15 -19 24 27 -29 -30 0
-4 9 -15 -19 24 -27 29 -30 0
-4 9 -15 -19 24 -27 -29 30 0
-4 9 -15 -19 -24 27 29 -30 0
-4 9 -15 -19 -24 27 -29 30 0
-4 9 -15 -19 -24 -27 29 30 0
-4 9 -15 -19 -24 -27 -29 -30 0
-4 -9 15 19 24 27 29 -30 0
-4 -9 15 19 24 27 -29 30 0
-4 -9 15 19 24 -27 29 30 0
-4 -9 15 19 24 -27 -29 -30 0
-4 -9 15 19 -24 27 29 30 0
-4 -9 15 19 -24 27 -29 -30 0
-4 -9 15 19 -24 -27 29 -30 0
-4 -9 15 19 -24 -27 -29 30 0
-4 -9 15 -19 24 27 29 30 0
-4 -9 15 -19 24 27 -29 -30 0
-4 -9 15 -19 24 -27 29 -30 0
-4 -9 15 -19 24 -27 -29 30 0
-4 -9 15 -19 -24 27 29 -30 0
-4 -9 15 -19 -24 27 -29 30 0
-4 -9 15 -19 -24 -27 29 30 0
-4 -9 15 -19 -24 -27 -29 -30 0
-4 -9 -15 19 24 27 29 30 0
-4 -9 -15 19 24 27 -29 -30 0
-4 -9 -15 19 24 -27 29 -30 0
-4 -9 -15 19 24 -27 -29 30 0
-4 -9 -15 19 -24 27 29 -30 0
-4 -9 -15 19 -24 27 -29 30 0
-4 -9 -15 19 -24 -27 29 30 0
-4 -9 -15 19 -24 -27 -29 -30 0
-4 -9 -15 -19 24 27 29 -30 0
-4 -9 -15 -19 24 27 -29 30 0
-4 -9 -15 -19 24 -27 29 30 0
-4 -9 -15 -19 24 -27 -29 -30 0
-4 -9 -15 -19 -24 27 29 30 0
-4 -9 -15 -19 -24 27 -29 -30 0
-4 -9 -15 -19 -24 -27 29 -30 0
-4 -9 -15 -19 -24 -27 -29 30 0
5 10 16 -20 0
5 10 -16 20 0
5 -10 16 20 0
5 -10 -16 -20 0
-5 10 16 20 0
-5 10 -16 -20 0
-5 -10 16 -20 0
-5 -10 -16 20 0
6 11 17 21 25 28 -30 0
6 11 17 21 25 -28 30 0
6 11 17 21 -25 28 30 0
6 11 17 21 -25 -28 -30 0
6 11 17 -21 25 28 30 0
6 11 17 -21 25 -28 -30 0
6 11 17 -21 -25 28 -30 0
6 11 17 -21 -25 -28 30 0
6 11 -17 21 25 28 30 0
6 11 -17 21 25 -28 -30 0
6 11 -17 21 -25 28 -30 0
6 11 -17 21 -25 -28 30 0
6 11 -17 -21 25 28 -30 0
6 11 -17 -21 25 -28 30 0
6 11 -17 -21 -25 28 30 0
6 11 -17 -21 -25 -28 -30 0
6 -11 17 21 25 28 30 0
6 -11 17 21 25 -28 -30 0
6 -11 17 21 -25 28 -30 0
6 -11 17 21 -25 -28 30 0
6 -11 17 -21 25 28 -30 0
6 -11 17 -21 25 -28 30 0
6 -11 17 -21 -25 28 30 0
6 -11 17 -21 -25 -28 -30 0
6 -11 -17 21 25 28 -30 0
6 -11 -17 21 25 -28 30 0
6 -11 -17 21 -25 28 30 0
6 -11 -17 21 -25 -28 -30 0
6 -11 -17 -21 25 28 30 0
6 -11 -17 -21 25 -28 -30 0
6 -11 -17 -21 -25 28 -30 0
6 -11 -17 -21 -25 -28 30 0
-6 11 17 21 25 28 30 0
-6 11 17 21 25 -28 -30 0
-6 11 17 21 -25 28 -30 0
-6 11 17 21 -25 -28 30 0
-6 11 17 -21 25 28 -30 0
-6 11 17 -21 25 -28 30 0
-6 11 17 -21 -25 28 30 0
-6 11 17 -21 -25 -28 -30 0
-6 11 -17 21 25 28 -30 0
-6 11 -17 21 25 -28 30 0
-6 11 -17 21 -25 28 30 0
-6 11 -17 21 -25 -28 -30 0
-6 11 -17 -21 25 28 30 0
-6 11 -17 -21 25 -28 -30 0
-6 11 -17 -21 -25 28 -30 0
-6 11 -17 -21 -25 -28 30 0
-6 -11 17 21 25 28 -30 0
-6 -11 17 21 25 -28 30 0
-6 -11 17 21 -25 28 30 0
-6 -11 17 21 -25 -28 -30 0
-6 -11 17 -21 25 28 30 0
-6 -11 17 -21 25 -28 -30 0
-6 -11 17 -21 -25 28 -30 0
-6 -11 17 -21 -25 -28 30 0
-6 -11 -17 21 25 28 30 0
-6 -11 -17 21 25 -28 -30 0
-6 -11 -17 21 -25 28 -30 0
-6 -11 -17 21 -25 -28 30 0
-6 -11 -17 -21 25 28 -30 0
-6 -11 -17 -21 25 -28 30 0
-6 -11 -17 -21 -25 28 30 0
-6 -11 -17 -21 -25 -28 -30 0